Linux optc-01-09 4.15.0-58-generic #64-Ubuntu SMP Tue Aug 6 11:12:41 UTC 2019 x86_64 x86_64 x86_64 GNU/Linux

top - 01:16:38 up 1 day, 15:17,  0 users,  load average: 0,00, 0,19, 0,54
Tasks: 287 gesamt,   1 laufend, 149 schlafend,   0 gestoppt,   0 Zombie
%CPU(s):  7,0 be,  0,3 sy,  0,0 ni, 92,7 un,  0,0 wa,  0,0 hi,  0,0 si,  0,0 st
KiB Spch : 97514992 gesamt, 95432768 frei,   651044 belegt,  1431180 Puff/Cache
KiB Swap:  8388604 gesamt,  8388604 frei,        0 belegt. 96122680 verfü Spch 

  PID USER      PR  NI    VIRT    RES    SHR S  %CPU %MEM     ZEIT+ BEFEHL
    1 root      20   0  233852   9392   6688 S   0,0  0,0   0:13.02 systemd
    2 root      20   0       0      0      0 S   0,0  0,0   0:00.13 kthreadd
    3 root      20   0       0      0      0 I   0,0  0,0   0:02.32 kworker/0:0
    4 root       0 -20       0      0      0 I   0,0  0,0   0:00.00 kworker/0:+
    6 root      20   0       0      0      0 I   0,0  0,0   0:00.00 kworker/u3+
    7 root       0 -20       0      0      0 I   0,0  0,0   0:00.00 mm_percpu_+
    8 root      20   0       0      0      0 S   0,0  0,0   0:00.01 ksoftirqd/0
    9 root      20   0       0      0      0 I   0,0  0,0   0:14.18 rcu_sched

hard time limit: 04:10:00
hard mem limit: 55100

SLURM jobID: 2182754

@01 /nfs/optimi/kombadon/IP/coral/neos-709469.mps.gz ===========
-----------------------------
Fr 23. Aug 01:16:38 CEST 2019
-----------------------------
@03 1566515798
@05 7200
SCIP version 6.0.0 [precision: 8 byte] [memory: block] [mode: optimized] [LP solver: CPLEX 12.8.0.0] [GitHash: 41ab6e0014]
Copyright (C) 2002-2018 Konrad-Zuse-Zentrum fuer Informationstechnik Berlin (ZIB)

External codes: 
  Readline 7.0         GNU library for command line editing (gnu.org/s/readline)
  CPLEX 12.8.0.0       Linear Programming Solver developed by IBM (www.cplex.com)
  CppAD 20180000.0     Algorithmic Differentiation of C++ algorithms developed by B. Bell (www.coin-or.org/CppAD)
  ZLIB 1.2.11          General purpose compression library by J. Gailly and M. Adler (zlib.net)
  GMP 6.1.2            GNU Multiple Precision Arithmetic Library developed by T. Granlund (gmplib.org)
  bliss 0.73p          Computing Graph Automorphism Groups by T. Junttila and P. Kaski (http://www.tcs.hut.fi/Software/bliss/)

user parameter file <scip.set> not found - using default parameters

SCIP> 
SCIP> set load /home/optimi/bzfhende/opti/scip-opti/check/../settings/enable_treeeprofile.set
loaded parameter file </home/optimi/bzfhende/opti/scip-opti/check/../settings/enable_treeprofile.set>
SCIP> set misc referencevalue 493.16
misc/referencevalue = 493.16
SCIP> set limits time 7200
limits/time = 7200
SCIP> set limits nodes 2100000000
limits/nodes = 2100000000
SCIP> set limits memory 50000
limits/memory = 50000
SCIP> set lp advanced threads 1
lp/threads = 1
SCIP> set timing clocktype 1
timing/clocktype = 1
SCIP> set display freq 10000
display/freq = 10000
SCIP> set memory savefac 1.0
memory/savefac = 1
SCIP> set save /home/optimi/bzfhende/opti/scip-opti/check/treesize.estimation.jouurnal.3/bzfhende.MMMc.290_neos-709469.scip.M640.enable_treeprofile.set
saved parameter file </home/optimi/bzfhende/opti/scip-opti/check/treesize.estimation.journal.3/bzfhende.MMMc.290_neos-709469.scip.M640.enable_treeprofile.set>
SCIP> read /nfs/optimi/kombadon/IP/coral/neos-709469.mps.gz

read problem </nfs/optimi/kombadon/IP/coral/neos-709469.mps.gz>
============

original problem has 224 variables (224 bin, 0 int, 0 impl, 0 cont) and 469 constraints
SCIP> display parameters

number of parameters = 2448
non-default parameter settings:
display/freq = 10000
limits/time = 7200
limits/nodes = 2100000000
limits/memory = 50000
lp/threads = 1
memory/savefac = 1
misc/referencevalue = 493.16
presolving/maxrestarts = 0
estimates/profile/enabled = TRUE
estimates/profile/maxdepthfactor = 10
estimates/profile/freq = 0

SCIP> optimize

Activating tree profile data collection
presolving:
(round 1, fast)       0 del vars, 0 del conss, 0 add conss, 0 chg bounds, 118 chg sides, 177 chg coeffs, 0 upgd conss, 0 impls, 188 clqs
(round 2, medium)     12 del vars, 0 del conss, 0 add conss, 0 chg bounds, 118 chg sides, 177 chg coeffs, 0 upgd conss, 0 impls, 161 clqs
(round 3, fast)       12 del vars, 24 del conss, 0 add conss, 0 chg bounds, 120 chg sides, 179 chg coeffs, 0 upgd conss, 0 impls, 161 clqs
(round 4, exhaustive) 12 del vars, 120 del conss, 0 add conss, 0 chg bounds, 122 chg sides, 179 chg coeffs, 0 upgd conss, 0 impls, 161 clqs
(round 5, exhaustive) 12 del vars, 120 del conss, 0 add conss, 0 chg bounds, 122 chg sides, 179 chg coeffs, 334 upgd conss, 0 impls, 161 clqs
(round 6, fast)       12 del vars, 136 del conss, 8 add conss, 0 chg bounds, 122 chg sides, 200 chg coeffs, 334 upgd conss, 0 impls, 161 clqs
(round 7, medium)     12 del vars, 277 del conss, 181 add conss, 0 chg bounds, 228 chg sides, 491 chg coeffs, 334 upgd conss, 0 impls, 198 clqs
(round 8, fast)       12 del vars, 279 del conss, 181 add conss, 0 chg bounds, 228 chg sides, 491 chg coeffs, 334 upgd conss, 0 impls, 198 clqs
(round 9, exhaustive) 12 del vars, 387 del conss, 217 add conss, 0 chg bounds, 228 chg sides, 491 chg coeffs, 334 upgd conss, 0 impls, 198 clqs
(round 10, exhaustive) 12 del vars, 387 del conss, 217 add conss, 0 chg bounds, 228 chg sides, 515 chg coeffs, 334 upgd conss, 0 impls, 198 clqs
(round 11, medium)     24 del vars, 411 del conss, 265 add conss, 0 chg bounds, 228 chg sides, 515 chg coeffs, 334 upgd conss, 0 impls, 199 clqs
(round 12, fast)       24 del vars, 458 del conss, 265 add conss, 0 chg bounds, 228 chg sides, 515 chg coeffs, 334 upgd conss, 0 impls, 199 clqs
(round 13, exhaustive) 24 del vars, 463 del conss, 265 add conss, 0 chg bounds, 228 chg sides, 515 chg coeffs, 334 upgd conss, 0 impls, 199 clqs
(round 14, exhaustive) 60 del vars, 463 del conss, 265 add conss, 0 chg bounds, 228 chg sides, 515 chg coeffs, 334 upgd conss, 0 impls, 122 clqs
(round 15, fast)       60 del vars, 472 del conss, 265 add conss, 0 chg bounds, 228 chg sides, 515 chg coeffs, 334 upgd conss, 0 impls, 122 clqs
(round 16, medium)     60 del vars, 594 del conss, 387 add conss, 0 chg bounds, 350 chg sides, 896 chg coeffs, 334 upgd conss, 0 impls, 122 clqs
(round 17, fast)       60 del vars, 594 del conss, 387 add conss, 0 chg bounds, 353 chg sides, 926 chg coeffs, 334 upgd conss, 0 impls, 122 clqs
(round 18, exhaustive) 60 del vars, 630 del conss, 423 add conss, 0 chg bounds, 353 chg sides, 926 chg coeffs, 334 upgd conss, 0 impls, 122 clqs
(round 19, fast)       60 del vars, 658 del conss, 423 add conss, 0 chg bounds, 353 chg sides, 926 chg coeffs, 334 upgd conss, 0 impls, 122 clqs
(round 20, exhaustive) 60 del vars, 666 del conss, 423 add conss, 0 chg bounds, 353 chg sides, 926 chg coeffs, 334 upgd conss, 0 impls, 122 clqs
   (0.0s) probing: 51/164 (31.1%) - 0 fixings, 0 aggregations, 0 implications, 0 bound changes
   (0.0s) probing aborted: 50/50 successive totally useless probings
presolving (21 rounds: 21 fast, 13 medium, 9 exhaustive):
 60 deleted vars, 666 deleted constraints, 423 added constraints, 0 tightened bounds, 0 added holes, 353 changed sides, 926 changed coefficients
 0 implications, 122 cliques
presolved problem has 164 variables (164 bin, 0 int, 0 impl, 0 cont) and 226 constraints
    105 constraints of type <knapsack>
    105 constraints of type <setppc>
     15 constraints of type <linear>
      1 constraints of type <logicor>
transformed objective value is always integral (scale: 0.02)
Presolving Time: 0.01

 time | node  | left  |LP iter|LP it/n| mem |mdpt |frac |vars |cons |cols |rows |cuts |confs|strbr|  dualbound   | primalbound  |  gap   
  0.0s|     1 |     0 |    64 |     - |3962k|   0 |   4 | 164 | 229 | 164 | 226 |   0 |   8 |   0 | 4.931600e+02 |      --      |    Inf 
  0.0s|     1 |     0 |   227 |     - |4103k|   0 |  20 | 164 | 229 | 164 | 227 |   1 |   8 |   0 | 4.931600e+02 |      --      |    Inf 
  0.0s|     1 |     0 |   233 |     - |4541k|   0 |  22 | 164 | 230 | 164 | 228 |   2 |   9 |   0 | 4.931600e+02 |      --      |    Inf 
  0.0s|     1 |     0 |   245 |     - |4737k|   0 |  10 | 164 | 230 | 164 | 230 |   4 |   9 |   0 | 4.931600e+02 |      --      |    Inf 
  0.0s|     1 |     0 |   251 |     - |4879k|   0 |   4 | 164 | 230 | 164 | 232 |   6 |   9 |   0 | 4.931600e+02 |      --      |    Inf 
  0.0s|     1 |     0 |   270 |     - |4962k|   0 |  29 | 164 | 230 | 164 | 235 |   9 |   9 |   0 | 4.931600e+02 |      --      |    Inf 
  0.1s|     1 |     0 |   297 |     - |5598k|   0 |  28 | 164 | 230 | 164 | 236 |  10 |   9 |   0 | 4.931600e+02 |      --      |    Inf 
  0.1s|     1 |     0 |   314 |     - |6131k|   0 |   4 | 164 | 231 | 164 | 238 |  12 |  10 |   0 | 4.931600e+02 |      --      |    Inf 
  0.1s|     1 |     0 |   318 |     - |6157k|   0 |   2 | 164 | 231 | 164 | 240 |  14 |  10 |   0 | 4.931600e+02 |      --      |    Inf 
G 0.1s|     1 |     0 |   318 |     - |6162k|   0 |   - | 164 | 231 | 164 | 240 |   0 |  10 |   0 | 4.931600e+02 | 4.931600e+02 |   0.00%
SCIP nodes: 1 Estimation: -1
  0.1s|     1 |     0 |   318 |     - |6162k|   0 |   - | 164 | 231 | 164 | 240 |  14 |  10 |   0 | 4.931600e+02 | 4.931600e+02 |   0.00%
Report 1
Time Elapsed: 0.06
  Tree Data        : 1 nodes (1 visited, 0 inner, 1 leaves, 0 open), progress: 1.0000
Tree Estimation    :       estim       value       trend  resolution      smooth
  wbe              :          -1           -           -           -           -
  tree profile     :          -1           -           -           -           -
  gap              :           1     1.00000     1.00000           1           1
  progress         :           1     1.00000     1.00000           1           1
  leaf-frequency   :           1     0.50000     1.00000           1           1
  ssg              :           1     0.00000    -1.00000           1           1
  open-nodes       :           1     0.00000     0.00000           1           1
End of Report 1


SCIP Status        : problem is solved [optimal solution found]
Solving Time (sec) : 0.06
Solving Nodes      : 1
Primal Bound       : +4.93160000000000e+02 (1 solutions)
Dual Bound         : +4.93160000000000e+02
Gap                : 0.00 %

SCIP> display statistics

SCIP Status        : problem is solved [optimal solution found]
Total Time         :       0.06
  solving          :       0.06
  presolving       :       0.01 (included in solving)
  reading          :       0.00
  copying          :       0.00 (0 times copied the problem)
Original Problem   :
  Problem name     : file
  Variables        : 224 (224 binary, 0 integer, 0 implicit integer, 0 continuous)
  Constraints      : 469 initial, 469 maximal
  Objective        : minimize, 224 non-zeros (abs.min = 4, abs.max = 10)
Presolved Problem  :
  Problem name     : t_file
  Variables        : 164 (164 binary, 0 integer, 0 implicit integer, 0 continuous)
  Constraints      : 226 initial, 231 maximal
  Objective        : minimize, 0 non-zeros (abs.min = 1e+20, abs.max = -1e+20)
Presolvers         :   ExecTime  SetupTime  Calls  FixedVars   AggrVars   ChgTypes  ChgBounds   AddHoles    DelCons    AddCons   ChgSides   ChgCoefs
  boundshift       :       0.00       0.00      0          0          0          0          0          0          0          0          0          0
  convertinttobin  :       0.00       0.00      0          0          0          0          0          0          0          0          0          0
  domcol           :       0.00       0.00      1          0          0          0          0          0          0          0          0          0
  dualagg          :       0.00       0.00      0          0          0          0          0          0          0          0          0          0
  dualcomp         :       0.00       0.00      0          0          0          0          0          0          0          0          0          0
  dualinfer        :       0.00       0.00      0          0          0          0          0          0          0          0          0          0
  gateextraction   :       0.00       0.00      7          0          0          0          0          0        108         36          0          0
  implics          :       0.00       0.00     13          0          0          0          0          0          0          0          0          0
  inttobinary      :       0.00       0.00      0          0          0          0          0          0          0          0          0          0
  qpkktref         :       0.00       0.00      0          0          0          0          0          0          0          0          0          0
  redvub           :       0.00       0.00      0          0          0          0          0          0          0          0          0          0
  sparsify         :       0.00       0.00      1          0          0          0          0          0          0          0          0          0
  stuffing         :       0.00       0.00      0          0          0          0          0          0          0          0          0          0
  symbreak         :       0.00       0.00      0          0          0          0          0          0          0          0          0          0
  symmetry         :       0.00       0.00      0          0          0          0          0          0          0          0          0          0
  trivial          :       0.00       0.00     21          0          0          0          0          0          0          0          0          0
  tworowbnd        :       0.00       0.00      0          0          0          0          0          0          0          0          0          0
  dualfix          :       0.00       0.00     21          0          0          0          0          0          0          0          0          0
  genvbounds       :       0.00       0.00      0          0          0          0          0          0          0          0          0          0
  orbitalfixing    :       0.00       0.00      0          0          0          0          0          0          0          0          0          0
  probing          :       0.00       0.00      1          0          0          0          0          0          0          0          0          0
  pseudoobj        :       0.00       0.00      0          0          0          0          0          0          0          0          0          0
  vbounds          :       0.00       0.00      3          0         24          0          0          0          0          0          0          0
  knapsack         :       0.00       0.00     32          0          0          0          0          0         75        351        231        747
  setppc           :       0.01       0.00     31          0          0          0          0          0        327          0          0          0
  and              :       0.00       0.00     11          0         36          0          0          0         36         36          0          0
  linear           :       0.00       0.00     24          0          0          0          0          0        120          0        122        179
  logicor          :       0.00       0.00     27          0          0          0          0          0          0          0          0          0
  benders          :       0.00       0.00      0          0          0          0          0          0          0          0          0          0
  components       :       0.00       0.00      1          0          0          0          0          0          0          0          0          0
  root node        :          -          -      -          0          -          -          0          -          -          -          -          -
Constraints        :     Number  MaxNumber  #Separate #Propagate    #EnfoLP    #EnfoRelax  #EnfoPS    #Check   #ResProp    Cutoffs    DomReds       Cuts    Applied      Conss   Children
  benderslp        :          0          0          0          0          0          0          0         15          0          0          0          0          0          0          0
  integral         :          0          0          0          0          0          0          0         15          0          0          0          0          0          0          0
  knapsack         :        105        105          8        512          0          0          0         10          6          3          0          0          0          0          0
  setppc           :        105        105          8        521          0          0          0          9        121          9          0          0          0          0          0
  linear           :         15         15          8        512          0          0          0          1         26          6          0          0          0          0          0
  logicor          :          1+         6          8         33          0          0          0          1          0          0          0          0          0          0          0
  benders          :          0          0          0          0          0          0          0          2          0          0          0          0          0          0          0
  countsols        :          0          0          0          0          0          0          0          2          0          0          0          0          0          0          0
  components       :          0          0          0          0          0          0          0          0          0          0          0          0          0          0          0
Constraint Timings :  TotalTime  SetupTime   Separate  Propagate     EnfoLP     EnfoPS     EnfoRelax   Check    ResProp    SB-Prop
  benderslp        :       0.00       0.00       0.00       0.00       0.00       0.00       0.00       0.00       0.00       0.00
  integral         :       0.00       0.00       0.00       0.00       0.00       0.00       0.00       0.00       0.00       0.00
  knapsack         :       0.00       0.00       0.00       0.00       0.00       0.00       0.00       0.00       0.00       0.00
  setppc           :       0.00       0.00       0.00       0.00       0.00       0.00       0.00       0.00       0.00       0.00
  linear           :       0.00       0.00       0.00       0.00       0.00       0.00       0.00       0.00       0.00       0.00
  logicor          :       0.00       0.00       0.00       0.00       0.00       0.00       0.00       0.00       0.00       0.00
  benders          :       0.00       0.00       0.00       0.00       0.00       0.00       0.00       0.00       0.00       0.00
  countsols        :       0.00       0.00       0.00       0.00       0.00       0.00       0.00       0.00       0.00       0.00
  components       :       0.00       0.00       0.00       0.00       0.00       0.00       0.00       0.00       0.00       0.00
Propagators        : #Propagate   #ResProp    Cutoffs    DomReds
  dualfix          :          1          0          0          0
  genvbounds       :          0          0          0          0
  nlobbt           :          0          0          0          0
  obbt             :          0          0          0          0
  orbitalfixing    :          0          0          0          0
  probing          :          0          0          0          0
  pseudoobj        :          0          0          0          0
  redcost          :          0          0          0          0
  rootredcost      :          0          0          0          0
  vbounds          :        424          0          0          0
Propagator Timings :  TotalTime  SetupTime   Presolve  Propagate    ResProp    SB-Prop
  dualfix          :       0.00       0.00       0.00       0.00       0.00       0.00
  genvbounds       :       0.00       0.00       0.00       0.00       0.00       0.00
  nlobbt           :       0.00       0.00       0.00       0.00       0.00       0.00
  obbt             :       0.00       0.00       0.00       0.00       0.00       0.00
  orbitalfixing    :       0.00       0.00       0.00       0.00       0.00       0.00
  probing          :       0.00       0.00       0.00       0.00       0.00       0.00
  pseudoobj        :       0.00       0.00       0.00       0.00       0.00       0.00
  redcost          :       0.00       0.00       0.00       0.00       0.00       0.00
  rootredcost      :       0.00       0.00       0.00       0.00       0.00       0.00
  vbounds          :       0.00       0.00       0.00       0.00       0.00       0.00
Conflict Analysis  :       Time      Calls    Success    DomReds  Conflicts   Literals    Reconvs ReconvLits   Dualrays   Nonzeros   LP Iters   (pool size: [10000,10000])
  propagation      :       0.00         10         10          -         40       28.3          0        0.0          -          -          -
  infeasible LP    :       0.00          0          0          -          0        0.0          0        0.0          0        0.0          0
  bound exceed. LP :       0.00          0          0          -          0        0.0          0        0.0          0        0.0          0
  strong branching :       0.00          0          0          -          0        0.0          0        0.0          -          -          0
  pseudo solution  :       0.00          1          0          -          0        0.0          0        0.0          -          -          -
  applied globally :       0.00          -          -          0          4        4.0          -          -          0          -          -
  applied locally  :          -          -          -          0          6       26.3          -          -          0          -          -
Separators         :   ExecTime  SetupTime      Calls    Cutoffs    DomReds       Cuts    Applied      Conss
  cut pool         :       0.00                    15          -          -        221          -          -    (maximal pool size: 406)
  aggregation      :       0.00       0.00          8          0          0          0          0          0
  cgmip            :       0.00       0.00          0          0          0          0          0          0
  clique           :       0.00       0.00          8          0          0          0          0          0
  closecuts        :       0.00       0.00          0          0          0          0          0          0
  cmir             :       0.00       0.00          0          0          0          0          6          0
  convexproj       :       0.00       0.00          0          0          0          0          0          0
  disjunctive      :       0.00       0.00          0          0          0          0          0          0
  eccuts           :       0.00       0.00          0          0          0          0          0          0
  flowcover        :       0.00       0.00          0          0          0          0          0          0
  gauge            :       0.00       0.00          0          0          0          0          0          0
  gomory           :       0.04       0.00          8          0          0          0          4          0
  impliedbounds    :       0.00       0.00          8          0          0          0          0          0
  intobj           :       0.00       0.00          0          0          0          0          0          0
  mcf              :       0.00       0.00          1          0          0          0          0          0
  oddcycle         :       0.00       0.00          0          0          0          0          0          0
  rapidlearning    :       0.00       0.00          0          0          0          0          0          0
  strongcg         :       0.01       0.00          8          0          0          0          4          0
  zerohalf         :       0.00       0.00          8          0          0          0          0          0
Pricers            :   ExecTime  SetupTime      Calls       Vars
  problem variables:       0.00          -          0          0
Branching Rules    :   ExecTime  SetupTime   BranchLP  BranchExt   BranchPS    Cutoffs    DomReds       Cuts      Conss   Children
  allfullstrong    :       0.00       0.00          0          0          0          0          0          0          0          0
  cloud            :       0.00       0.00          0          0          0          0          0          0          0          0
  distribution     :       0.00       0.00          0          0          0          0          0          0          0          0
  fullstrong       :       0.00       0.00          0          0          0          0          0          0          0          0
  inference        :       0.00       0.00          0          0          0          0          0          0          0          0
  leastinf         :       0.00       0.00          0          0          0          0          0          0          0          0
  lookahead        :       0.00       0.00          0          0          0          0          0          0          0          0
  mostinf          :       0.00       0.00          0          0          0          0          0          0          0          0
  multaggr         :       0.00       0.00          0          0          0          0          0          0          0          0
  nodereopt        :       0.00       0.00          0          0          0          0          0          0          0          0
  pscost           :       0.00       0.00          0          0          0          0          0          0          0          0
  random           :       0.00       0.00          0          0          0          0          0          0          0          0
  relpscost        :       0.00       0.00          0          0          0          0          0          0          0          0
Primal Heuristics  :   ExecTime  SetupTime      Calls      Found       Best
  LP solutions     :       0.00          -          -          0          0
  relax solutions  :       0.00          -          -          0          0
  pseudo solutions :       0.00          -          -          0          0
  strong branching :       0.00          -          -          0          0
  actconsdiving    :       0.00       0.00          0          0          0
  alns             :       0.00       0.00          0          0          0
  bound            :       0.00       0.00          0          0          0
  clique           :       0.00       0.00          1          0          0
  coefdiving       :       0.00       0.00          0          0          0
  completesol      :       0.00       0.00          0          0          0
  conflictdiving   :       0.00       0.00          0          0          0
  crossover        :       0.00       0.00          0          0          0
  dins             :       0.00       0.00          0          0          0
  distributiondivin:       0.00       0.00          0          0          0
  dualval          :       0.00       0.00          0          0          0
  farkasdiving     :       0.00       0.00          0          0          0
  feaspump         :       0.00       0.00          1          0          0
  fixandinfer      :       0.00       0.00          0          0          0
  fracdiving       :       0.00       0.00          0          0          0
  gins             :       0.00       0.00          0          0          0
  guideddiving     :       0.00       0.00          0          0          0
  indicator        :       0.00       0.00          0          0          0
  intdiving        :       0.00       0.00          0          0          0
  intshifting      :       0.00       0.00          0          0          0
  linesearchdiving :       0.00       0.00          0          0          0
  localbranching   :       0.00       0.00          0          0          0
  locks            :       0.00       0.00          1          0          0
  lpface           :       0.00       0.00          0          0          0
  mpec             :       0.00       0.00          0          0          0
  multistart       :       0.00       0.00          0          0          0
  mutation         :       0.00       0.00          0          0          0
  nlpdiving        :       0.00       0.00          0          0          0
  objpscostdiving  :       0.00       0.00          0          0          0
  octane           :       0.00       0.00          0          0          0
  ofins            :       0.00       0.00          0          0          0
  oneopt           :       0.00       0.00          0          0          0
  proximity        :       0.00       0.00          0          0          0
  pscostdiving     :       0.00       0.00          0          0          0
  randrounding     :       0.00       0.00          9          1          1
  rens             :       0.00       0.00          0          0          0
  reoptsols        :       0.00       0.00          0          0          0
  repair           :       0.00       0.00          0          0          0
  rins             :       0.00       0.00          0          0          0
  rootsoldiving    :       0.00       0.00          0          0          0
  rounding         :       0.00       0.00          8          0          0
  shiftandpropagate:       0.00       0.00          1          0          0
  shifting         :       0.00       0.00          8          0          0
  simplerounding   :       0.00       0.00          0          0          0
  subnlp           :       0.00       0.00          0          0          0
  trivial          :       0.00       0.00          2          0          0
  trivialnegation  :       0.00       0.00          0          0          0
  trysol           :       0.00       0.00          0          0          0
  twoopt           :       0.00       0.00          0          0          0
  undercover       :       0.00       0.00          0          0          0
  vbounds          :       0.00       0.00          1          0          0
  veclendiving     :       0.00       0.00          0          0          0
  zeroobj          :       0.00       0.00          0          0          0
  zirounding       :       0.00       0.00          0          0          0
  other solutions  :          -          -          -          0          -
Diving Statistics  :      Calls      Nodes   LP Iters Backtracks  Conflicts   MinDepth   MaxDepth   AvgDepth  RoundSols  NLeafSols  MinSolDpt  MaxSolDpt  AvgSolDpt
  actconsdiving    :          0          -          -          -          -          -          -          -          -          -          -          -          -
  coefdiving       :          0          -          -          -          -          -          -          -          -          -          -          -          -
  conflictdiving   :          0          -          -          -          -          -          -          -          -          -          -          -          -
  distributiondivin:          0          -          -          -          -          -          -          -          -          -          -          -          -
  farkasdiving     :          0          -          -          -          -          -          -          -          -          -          -          -          -
  fracdiving       :          0          -          -          -          -          -          -          -          -          -          -          -          -
  guideddiving     :          0          -          -          -          -          -          -          -          -          -          -          -          -
  linesearchdiving :          0          -          -          -          -          -          -          -          -          -          -          -          -
  pscostdiving     :          0          -          -          -          -          -          -          -          -          -          -          -          -
  veclendiving     :          0          -          -          -          -          -          -          -          -          -          -          -          -
Neighborhoods      :      Calls  SetupTime  SolveTime SolveNodes       Sols       Best       Exp3  EpsGreedy        UCB TgtFixRate  Opt  Inf Node Stal  Sol  Usr Othr Actv
  rens             :          0       0.00       0.00          0          0          0    0.00000   -1.00000    1.00000      0.900    0    0    0    0    0    0    0    1
  rins             :          0       0.00       0.00          0          0          0    0.00000   -1.00000    1.00000      0.900    0    0    0    0    0    0    0    1
  mutation         :          0       0.00       0.00          0          0          0    0.00000   -1.00000    1.00000      0.900    0    0    0    0    0    0    0    1
  localbranching   :          0       0.00       0.00          0          0          0    0.00000   -1.00000    1.00000      0.900    0    0    0    0    0    0    0    1
  crossover        :          0       0.00       0.00          0          0          0    0.00000   -1.00000    1.00000      0.900    0    0    0    0    0    0    0    1
  proximity        :          0       0.00       0.00          0          0          0    0.00000   -1.00000    1.00000      0.900    0    0    0    0    0    0    0    1
  dins             :          0       0.00       0.00          0          0          0    0.00000   -1.00000    1.00000      0.900    0    0    0    0    0    0    0    1
  zeroobjective    :          0       0.00       0.00          0          0          0    0.00000   -1.00000    1.00000      0.900    0    0    0    0    0    0    0    0
LP                 :       Time      Calls Iterations  Iter/call   Iter/sec  Time-0-It Calls-0-It    ItLimit
  primal LP        :       0.00          0          0       0.00          -       0.00          0
  dual LP          :       0.00          9        168      18.67          -       0.00          0
  lex dual LP      :       0.00          0          0       0.00          -
  barrier LP       :       0.00          0          0       0.00          -       0.00          0
  resolve instable :       0.00          0          0       0.00          -
  diving/probing LP:       0.00          8        150      18.75          -
  strong branching :       0.00          0          0       0.00          -          -          -          0
    (at root node) :          -          0          0       0.00          -
  conflict analysis:       0.00          0          0       0.00          -
B&B Tree           :
  number of runs   :          1
  nodes            :          1 (0 internal, 1 leaves)
  feasible leaves  :          0
  infeas. leaves   :          0
  objective leaves :          1
  nodes (total)    :          1 (0 internal, 1 leaves)
  nodes left       :          0
  max depth        :          0
  max depth (total):          0
  backtracks       :          0 (0.0%)
  early backtracks :          0 (0.0%)
  nodes exc. ref.  :          0 (0.0%)
  delayed cutoffs  :          0
  repropagations   :          0 (0 domain reductions, 0 cutoffs)
  avg switch length:       2.00
  switching time   :       0.00
Root Node          :
  First LP value   : +4.93160000000000e+02
  First LP Iters   :         64
  First LP Time    :       0.00
  Final Dual Bound : +4.93160000000000e+02
  Final Root Iters :        318
  Root LP Estimate :                     -
Solution           :
  Solutions found  :          1 (1 improvements)
  First Solution   : +4.93160000000000e+02   (in run 1, after 1 nodes, 0.06 seconds, depth 3, found by <randrounding>)
  Gap First Sol.   :       0.00 %
  Gap Last Sol.    :       0.00 %
  Primal Bound     : +4.93160000000000e+02   (in run 1, after 1 nodes, 0.06 seconds, depth 3, found by <randrounding>)
  Dual Bound       : +4.93160000000000e+02
  Gap              :       0.00 %
  Avg. Gap         :     100.00 % (6.00 primal-dual integral)
  Tree Data        : 1 nodes (1 visited, 0 inner, 1 leaves, 0 open), progress: 1.0000
Tree Estimation    :       estim       value       trend  resolution      smooth
  wbe              :           1           -           -           -           -
  tree profile     :          -1           -           -           -           -
  gap              :           1     1.00000     1.00000           1           1
  progress         :           1     1.00000     1.00000           1           1
  leaf-frequency   :           1     0.50000     1.00000           1           1
  ssg              :           1     0.00000    -1.00000           1           1
  open-nodes       :           1     0.00000     0.00000           1           1


SCIP> checksol

check best solution
solution is feasible in original problem
Violation          :    absolute    relative
  bounds           : 4.44089e-16 4.44089e-16
  integrality      : 4.44089e-16           -
  LP rows          : 4.44089e-16 4.44089e-16
  constraints      : 4.44089e-16 4.44089e-16

SCIP> write sol /local/tmp/bzfhende-tmpdir/bzfhende.MMMc.290_neos-709469.scip.M6440.enable_treeprofile.sol

written solution information to file </local/tmp/bzfhende-tmpdir/bzfhende.MMMc.290_neos-709469.scip.M640.enable_treeprofile.sol>

SCIP> quit

Disabling tree profile data collection
Read MPS: 1
MIP has 224 vars and 469 constraints
Read SOL: 1
Objective value computed by solver: 493.16

Integrality tolerance: 1/10000
Linear tolerance: 1/10000
Objective tolerance: 1/10000

Check SOL: Integrality 1 Constraints 1 Objective 1
Maximum violations: Integrality 0 Constraints 0 Objective 0
@04 1566515798
-----------------------------
Fr 23. Aug 01:16:38 CEST 2019
-----------------------------

=ready=
